p edge 150 2235
e 1 7
e 1 14
e 1 21
e 1 22
e 1 24
e 1 35
e 1 43
e 1 47
e 1 48
e 1 49
e 1 51
e 1 52
e 1 71
e 1 79
e 1 85
e 1 95
e 1 96
e 1 98
e 1 99
e 1 101
e 1 103
e 1 112
e 1 115
e 1 117
e 1 122
e 1 125
e 1 127
e 1 140
e 1 142
e 2 12
e 2 14
e 2 18
e 2 23
e 2 24
e 2 30
e 2 31
e 2 32
e 2 40
e 2 42
e 2 43
e 2 48
e 2 49
e 2 53
e 2 56
e 2 58
e 2 76
e 2 78
e 2 81
e 2 83
e 2 85
e 2 87
e 2 110
e 2 115
e 2 120
e 2 123
e 2 130
e 2 137
e 2 138
e 2 146
e 2 147
e 3 8
e 3 15
e 3 37
e 3 40
e 3 42
e 3 45
e 3 47
e 3 53
e 3 55
e 3 56
e 3 58
e 3 62
e 3 67
e 3 70
e 3 80
e 3 81
e 3 82
e 3 86
e 3 88
e 3 89
e 3 90
e 3 97
e 3 107
e 3 116
e 3 122
e 3 124
e 3 134
e 3 136
e 3 137
e 3 140
e 3 141
e 3 147
e 3 149
e 4 8
e 4 26
e 4 28
e 4 32
e 4 41
e 4 45
e 4 47
e 4 48
e 4 49
e 4 55
e 4 59
e 4 61
e 4 69
e 4 72
e 4 78
e 4 79
e 4 85
e 4 90
e 4 99
e 4 107
e 4 112
e 4 116
e 4 125
e 4 135
e 4 141
e 4 147
e 5 6
e 5 29
e 5 32
e 5 38
e 5 46
e 5 47
e 5 52
e 5 53
e 5 63
e 5 68
e 5 74
e 5 82
e 5 86
e 5 91
e 5 97
e 5 98
e 5 105
e 5 106
e 5 117
e 5 126
e 5 131
e 5 137
e 5 138
e 5 143
e 5 150
e 6 18
e 6 20
e 6 22
e 6 23
e 6 35
e 6 52
e 6 54
e 6 55
e 6 58
e 6 62
e 6 66
e 6 78
e 6 82
e 6 103
e 6 105
e 6 106
e 6 107
e 6 112
e 6 114
e 6 115
e 6 118
e 6 120
e 6 123
e 6 126
e 6 135
e 6 136
e 6 137
e 6 145
e 6 147
e 7 9
e 7 19
e 7 23
e 7 32
e 7 42
e 7 44
e 7 45
e 7 48
e 7 49
e 7 55
e 7 56
e 7 59
e 7 89
e 7 96
e 7 102
e 7 105
e 7 107
e 7 111
e 7 120
e 7 133
e 7 137
e 7 149
e 8 14
e 8 17
e 8 21
e 8 28
e 8 30
e 8 34
e 8 38
e 8 42
e 8 45
e 8 47
e 8 51
e 8 66
e 8 70
e 8 75
e 8 79
e 8 84
e 8 88
e 8 92
e 8 97
e 8 101
e 8 117
e 8 118
e 8 120
e 8 123
e 8 124
e 8 126
e 8 148
e 8 149
e 9 12
e 9 23
e 9 24
e 9 33
e 9 34
e 9 36
e 9 47
e 9 55
e 9 60
e 9 70
e 9 74
e 9 76
e 9 81
e 9 91
e 9 92
e 9 93
e 9 95
e 9 97
e 9 108
e 9 112
e 9 120
e 9 121
e 9 125
e 9 127
e 9 131
e 9 132
e 9 134
e 9 137
e 9 146
e 9 148
e 10 19
e 10 22
e 10 25
e 10 26
e 10 36
e 10 39
e 10 43
e 10 46
e 10 48
e 10 50
e 10 55
e 10 56
e 10 61
e 10 71
e 10 79
e 10 86
e 10 87
e 10 95
e 10 101
e 10 112
e 10 114
e 10 116
e 10 119
e 10 125
e 10 126
e 10 139
e 10 140
e 10 141
e 10 145
e 11 13
e 11 15
e 11 18
e 11 23
e 11 28
e 11 33
e 11 35
e 11 37
e 11 45
e 11 49
e 11 56
e 11 58
e 11 65
e 11 68
e 11 72
e 11 81
e 11 84
e 11 89
e 11 91
e 11 94
e 11 99
e 11 101
e 11 106
e 11 108
e 11 110
e 11 113
e 11 114
e 11 119
e 11 137
e 11 148
e 12 25
e 12 32
e 12 39
e 12 44
e 12 51
e 12 52
e 12 55
e 12 58
e 12 61
e 12 64
e 12 66
e 12 72
e 12 75
e 12 78
e 12 85
e 12 86
e 12 96
e 12 97
e 12 98
e 12 100
e 12 101
e 12 106
e 12 108
e 12 110
e 12 111
e 12 114
e 12 115
e 12 120
e 12 122
e 12 124
e 12 126
e 12 127
e 12 128
e 12 135
e 12 142
e 12 148
e 12 150
e 13 18
e 13 21
e 13 26
e 13 32
e 13 45
e 13 48
e 13 54
e 13 56
e 13 60
e 13 77
e 13 86
e 13 93
e 13 113
e 13 121
e 13 126
e 13 131
e 13 139
e 13 143
e 14 17
e 14 18
e 14 19
e 14 20
e 14 27
e 14 30
e 14 32
e 14 37
e 14 39
e 14 45
e 14 49
e 14 54
e 14 69
e 14 74
e 14 84
e 14 91
e 14 98
e 14 102
e 14 104
e 14 107
e 14 112
e 14 119
e 14 121
e 14 133
e 14 136
e 14 137
e 14 145
e 15 20
e 15 35
e 15 37
e 15 40
e 15 46
e 15 50
e 15 53
e 15 57
e 15 61
e 15 64
e 15 69
e 15 71
e 15 74
e 15 76
e 15 87
e 15 88
e 15 99
e 15 102
e 15 103
e 15 116
e 15 125
e 15 129
e 15 134
e 15 142
e 15 149
e 16 25
e 16 27
e 16 29
e 16 32
e 16 38
e 16 41
e 16 44
e 16 47
e 16 48
e 16 49
e 16 51
e 16 54
e 16 56
e 16 68
e 16 75
e 16 77
e 16 78
e 16 79
e 16 83
e 16 84
e 16 86
e 16 88
e 16 105
e 16 110
e 16 111
e 16 112
e 16 124
e 16 129
e 16 130
e 16 132
e 16 137
e 16 145
e 16 146
e 16 150
e 17 18
e 17 23
e 17 25
e 17 27
e 17 29
e 17 30
e 17 42
e 17 46
e 17 54
e 17 60
e 17 63
e 17 65
e 17 71
e 17 72
e 17 73
e 17 78
e 17 79
e 17 83
e 17 86
e 17 93
e 17 99
e 17 102
e 17 113
e 17 115
e 17 127
e 17 139
e 17 140
e 17 146
e 17 147
e 18 23
e 18 51
e 18 52
e 18 62
e 18 67
e 18 70
e 18 78
e 18 90
e 18 91
e 18 99
e 18 103
e 18 106
e 18 109
e 18 112
e 18 117
e 18 118
e 18 119
e 18 120
e 18 121
e 18 126
e 18 128
e 18 132
e 18 136
e 18 140
e 18 142
e 18 149
e 19 22
e 19 27
e 19 28
e 19 31
e 19 34
e 19 35
e 19 39
e 19 60
e 19 64
e 19 68
e 19 70
e 19 73
e 19 77
e 19 78
e 19 84
e 19 89
e 19 90
e 19 96
e 19 98
e 19 103
e 19 105
e 19 107
e 19 134
e 19 136
e 19 144
e 19 150
e 20 24
e 20 26
e 20 27
e 20 28
e 20 36
e 20 39
e 20 42
e 20 46
e 20 47
e 20 49
e 20 53
e 20 54
e 20 55
e 20 59
e 20 60
e 20 69
e 20 75
e 20 82
e 20 84
e 20 91
e 20 96
e 20 99
e 20 103
e 20 106
e 20 109
e 20 110
e 20 116
e 20 117
e 20 120
e 20 122
e 20 124
e 20 129
e 21 34
e 21 36
e 21 38
e 21 42
e 21 44
e 21 46
e 21 59
e 21 60
e 21 70
e 21 73
e 21 75
e 21 79
e 21 83
e 21 87
e 21 98
e 21 121
e 21 125
e 21 141
e 21 148
e 22 24
e 22 35
e 22 36
e 22 39
e 22 41
e 22 46
e 22 50
e 22 55
e 22 62
e 22 75
e 22 80
e 22 86
e 22 91
e 22 92
e 22 93
e 22 98
e 22 100
e 22 112
e 22 114
e 22 115
e 22 122
e 22 126
e 22 130
e 22 132
e 22 133
e 22 137
e 22 139
e 22 148
e 22 149
e 23 25
e 23 34
e 23 36
e 23 38
e 23 40
e 23 41
e 23 55
e 23 57
e 23 58
e 23 76
e 23 80
e 23 82
e 23 84
e 23 86
e 23 87
e 23 89
e 23 98
e 23 103
e 23 107
e 23 115
e 23 117
e 23 129
e 23 133
e 23 139
e 23 140
e 23 141
e 23 143
e 23 147
e 24 33
e 24 37
e 24 48
e 24 49
e 24 53
e 24 60
e 24 63
e 24 64
e 24 70
e 24 75
e 24 78
e 24 84
e 24 90
e 24 97
e 24 98
e 24 105
e 24 108
e 24 110
e 24 115
e 24 116
e 24 118
e 24 120
e 24 127
e 24 130
e 24 138
e 24 150
e 25 27
e 25 29
e 25 35
e 25 39
e 25 41
e 25 42
e 25 46
e 25 49
e 25 63
e 25 70
e 25 73
e 25 81
e 25 82
e 25 94
e 25 102
e 25 105
e 25 111
e 25 113
e 25 122
e 25 127
e 25 129
e 25 139
e 25 140
e 25 142
e 25 144
e 25 146
e 25 148
e 26 30
e 26 34
e 26 51
e 26 54
e 26 65
e 26 67
e 26 83
e 26 86
e 26 88
e 26 90
e 26 91
e 26 95
e 26 96
e 26 97
e 26 101
e 26 102
e 26 105
e 26 113
e 26 114
e 26 117
e 26 120
e 26 121
e 26 126
e 26 134
e 26 139
e 26 144
e 26 149
e 27 34
e 27 36
e 27 44
e 27 49
e 27 68
e 27 69
e 27 71
e 27 82
e 27 94
e 27 101
e 27 106
e 27 107
e 27 112
e 27 115
e 27 118
e 27 122
e 27 124
e 27 125
e 27 131
e 27 133
e 27 136
e 27 138
e 27 141
e 27 145
e 27 150
e 28 29
e 28 34
e 28 41
e 28 45
e 28 62
e 28 65
e 28 69
e 28 70
e 28 74
e 28 76
e 28 81
e 28 86
e 28 94
e 28 95
e 28 100
e 28 102
e 28 107
e 28 108
e 28 110
e 28 115
e 28 120
e 28 122
e 28 124
e 28 125
e 28 129
e 28 141
e 28 149
e 29 31
e 29 41
e 29 42
e 29 46
e 29 51
e 29 58
e 29 65
e 29 66
e 29 71
e 29 75
e 29 77
e 29 87
e 29 95
e 29 96
e 29 117
e 29 118
e 29 120
e 29 121
e 29 122
e 29 127
e 29 134
e 29 137
e 29 141
e 29 149
e 30 32
e 30 41
e 30 42
e 30 52
e 30 69
e 30 72
e 30 77
e 30 91
e 30 97
e 30 104
e 30 110
e 30 112
e 30 114
e 30 120
e 30 121
e 30 129
e 30 140
e 30 145
e 31 34
e 31 37
e 31 51
e 31 52
e 31 53
e 31 62
e 31 63
e 31 66
e 31 68
e 31 70
e 31 79
e 31 84
e 31 96
e 31 104
e 31 106
e 31 107
e 31 114
e 31 118
e 31 129
e 31 133
e 31 143
e 31 149
e 31 150
e 32 36
e 32 47
e 32 49
e 32 51
e 32 54
e 32 62
e 32 75
e 32 83
e 32 91
e 32 96
e 32 97
e 32 113
e 32 118
e 32 127
e 32 132
e 32 135
e 32 137
e 32 141
e 32 143
e 32 144
e 33 36
e 33 41
e 33 54
e 33 55
e 33 56
e 33 61
e 33 62
e 33 67
e 33 68
e 33 69
e 33 87
e 33 90
e 33 96
e 33 98
e 33 99
e 33 103
e 33 104
e 33 105
e 33 107
e 33 108
e 33 111
e 33 122
e 33 127
e 33 130
e 33 132
e 33 147
e 34 44
e 34 47
e 34 57
e 34 58
e 34 65
e 34 79
e 34 105
e 34 109
e 34 121
e 34 125
e 34 126
e 34 129
e 34 140
e 34 142
e 34 145
e 35 36
e 35 40
e 35 56
e 35 57
e 35 58
e 35 69
e 35 70
e 35 71
e 35 75
e 35 76
e 35 77
e 35 80
e 35 97
e 35 100
e 35 104
e 35 112
e 35 113
e 35 133
e 35 134
e 35 135
e 35 139
e 35 140
e 35 141
e 35 143
e 35 144
e 36 45
e 36 49
e 36 62
e 36 66
e 36 67
e 36 74
e 36 77
e 36 81
e 36 82
e 36 87
e 36 88
e 36 100
e 36 101
e 36 104
e 36 105
e 36 116
e 36 130
e 36 133
e 36 137
e 36 139
e 36 140
e 36 146
e 37 43
e 37 52
e 37 55
e 37 59
e 37 61
e 37 71
e 37 73
e 37 74
e 37 75
e 37 79
e 37 82
e 37 92
e 37 99
e 37 101
e 37 102
e 37 104
e 37 112
e 37 114
e 37 120
e 37 121
e 37 128
e 37 129
e 37 137
e 37 141
e 37 143
e 37 144
e 37 149
e 38 42
e 38 50
e 38 53
e 38 58
e 38 59
e 38 60
e 38 62
e 38 63
e 38 64
e 38 71
e 38 73
e 38 75
e 38 76
e 38 77
e 38 79
e 38 80
e 38 84
e 38 86
e 38 91
e 38 101
e 38 105
e 38 108
e 38 111
e 38 112
e 38 118
e 38 125
e 38 128
e 38 133
e 38 134
e 38 145
e 38 146
e 39 40
e 39 49
e 39 55
e 39 60
e 39 62
e 39 64
e 39 73
e 39 81
e 39 84
e 39 86
e 39 90
e 39 108
e 39 118
e 39 124
e 39 127
e 39 142
e 39 144
e 39 148
e 40 41
e 40 43
e 40 44
e 40 53
e 40 61
e 40 62
e 40 63
e 40 64
e 40 73
e 40 80
e 40 81
e 40 88
e 40 92
e 40 95
e 40 99
e 40 104
e 40 120
e 40 127
e 40 129
e 40 131
e 40 137
e 40 140
e 40 149
e 41 42
e 41 47
e 41 50
e 41 51
e 41 56
e 41 64
e 41 66
e 41 78
e 41 79
e 41 81
e 41 83
e 41 85
e 41 91
e 41 93
e 41 94
e 41 95
e 41 98
e 41 111
e 41 115
e 41 118
e 41 122
e 41 128
e 41 129
e 41 132
e 41 133
e 41 141
e 42 43
e 42 62
e 42 70
e 42 73
e 42 76
e 42 80
e 42 89
e 42 92
e 42 97
e 42 104
e 42 108
e 42 109
e 42 112
e 42 125
e 42 132
e 42 143
e 43 54
e 43 56
e 43 59
e 43 61
e 43 64
e 43 71
e 43 73
e 43 85
e 43 87
e 43 90
e 43 93
e 43 104
e 43 108
e 43 120
e 43 124
e 43 129
e 43 135
e 43 136
e 44 61
e 44 64
e 44 66
e 44 69
e 44 78
e 44 88
e 44 89
e 44 93
e 44 98
e 44 102
e 44 107
e 44 123
e 44 142
e 44 143
e 44 146
e 45 52
e 45 59
e 45 64
e 45 69
e 45 72
e 45 78
e 45 80
e 45 82
e 45 84
e 45 94
e 45 102
e 45 118
e 45 120
e 45 123
e 45 128
e 45 134
e 45 135
e 45 142
e 45 148
e 45 150
e 46 48
e 46 50
e 46 53
e 46 56
e 46 64
e 46 73
e 46 83
e 46 88
e 46 90
e 46 92
e 46 96
e 46 98
e 46 100
e 46 104
e 46 105
e 46 106
e 46 110
e 46 112
e 46 114
e 46 118
e 46 122
e 46 131
e 46 143
e 46 146
e 47 50
e 47 53
e 47 57
e 47 68
e 47 76
e 47 79
e 47 88
e 47 113
e 47 115
e 47 118
e 47 122
e 47 124
e 47 126
e 47 129
e 47 142
e 47 143
e 47 148
e 47 150
e 48 57
e 48 65
e 48 69
e 48 74
e 48 75
e 48 86
e 48 91
e 48 94
e 48 95
e 48 98
e 48 101
e 48 102
e 48 104
e 48 105
e 48 107
e 48 122
e 48 124
e 48 132
e 48 139
e 48 141
e 48 144
e 48 150
e 49 71
e 49 78
e 49 96
e 49 100
e 49 108
e 49 109
e 49 112
e 49 113
e 49 114
e 49 128
e 49 135
e 49 140
e 50 53
e 50 55
e 50 58
e 50 59
e 50 76
e 50 78
e 50 82
e 50 86
e 50 88
e 50 91
e 50 94
e 50 95
e 50 98
e 50 107
e 50 110
e 50 131
e 50 132
e 50 133
e 50 135
e 50 138
e 50 140
e 50 141
e 50 142
e 50 149
e 51 53
e 51 71
e 51 73
e 51 75
e 51 77
e 51 79
e 51 88
e 51 94
e 51 106
e 51 112
e 51 113
e 51 118
e 51 121
e 51 123
e 51 136
e 51 138
e 51 140
e 51 148
e 51 149
e 51 150
e 52 64
e 52 73
e 52 77
e 52 80
e 52 83
e 52 100
e 52 101
e 52 102
e 52 106
e 52 111
e 52 114
e 52 118
e 52 128
e 52 131
e 52 132
e 52 133
e 52 141
e 53 54
e 53 57
e 53 72
e 53 73
e 53 75
e 53 76
e 53 78
e 53 85
e 53 86
e 53 89
e 53 91
e 53 97
e 53 110
e 53 112
e 53 117
e 53 123
e 53 126
e 53 128
e 53 132
e 53 136
e 53 149
e 54 55
e 54 60
e 54 61
e 54 66
e 54 73
e 54 74
e 54 75
e 54 77
e 54 82
e 54 97
e 54 101
e 54 103
e 54 104
e 54 110
e 54 113
e 54 118
e 54 121
e 54 125
e 54 129
e 54 136
e 54 143
e 55 58
e 55 60
e 55 61
e 55 66
e 55 71
e 55 74
e 55 75
e 55 82
e 55 83
e 55 89
e 55 91
e 55 96
e 55 102
e 55 110
e 55 113
e 55 119
e 55 127
e 55 135
e 55 139
e 55 141
e 55 142
e 55 145
e 55 147
e 55 150
e 56 58
e 56 73
e 56 76
e 56 82
e 56 84
e 56 95
e 56 97
e 56 98
e 56 105
e 56 111
e 56 112
e 56 114
e 56 122
e 56 125
e 56 128
e 56 143
e 56 144
e 57 66
e 57 69
e 57 75
e 57 78
e 57 81
e 57 85
e 57 88
e 57 90
e 57 96
e 57 98
e 57 99
e 57 102
e 57 108
e 57 121
e 57 136
e 57 143
e 57 146
e 57 149
e 58 70
e 58 73
e 58 74
e 58 80
e 58 92
e 58 102
e 58 106
e 58 107
e 58 110
e 58 111
e 58 117
e 58 125
e 58 126
e 58 133
e 58 134
e 58 143
e 59 67
e 59 69
e 59 71
e 59 76
e 59 80
e 59 91
e 59 97
e 59 100
e 59 106
e 59 111
e 59 115
e 59 117
e 59 122
e 59 125
e 59 126
e 59 128
e 59 132
e 59 138
e 59 140
e 60 64
e 60 65
e 60 67
e 60 77
e 60 78
e 60 79
e 60 86
e 60 92
e 60 94
e 60 99
e 60 101
e 60 108
e 60 110
e 60 113
e 60 116
e 60 118
e 60 122
e 60 124
e 60 125
e 60 145
e 61 66
e 61 70
e 61 74
e 61 76
e 61 92
e 61 94
e 61 96
e 61 100
e 61 103
e 61 104
e 61 108
e 61 109
e 61 111
e 61 112
e 61 114
e 61 123
e 61 129
e 61 133
e 61 141
e 61 146
e 61 149
e 62 76
e 62 79
e 62 80
e 62 89
e 62 96
e 62 98
e 62 101
e 62 124
e 62 126
e 62 129
e 62 132
e 62 135
e 62 140
e 62 142
e 62 144
e 63 65
e 63 75
e 63 76
e 63 84
e 63 85
e 63 97
e 63 106
e 63 110
e 63 116
e 63 118
e 63 127
e 63 130
e 63 139
e 63 141
e 63 147
e 64 69
e 64 70
e 64 75
e 64 79
e 64 81
e 64 83
e 64 86
e 64 87
e 64 88
e 64 100
e 64 103
e 64 104
e 64 108
e 64 114
e 64 115
e 64 117
e 64 118
e 64 119
e 64 121
e 64 127
e 64 129
e 64 131
e 64 132
e 64 133
e 64 134
e 64 144
e 64 146
e 64 149
e 65 66
e 65 70
e 65 71
e 65 73
e 65 78
e 65 80
e 65 86
e 65 91
e 65 98
e 65 100
e 65 110
e 65 113
e 65 114
e 65 126
e 65 129
e 65 135
e 65 142
e 65 147
e 66 67
e 66 74
e 66 84
e 66 85
e 66 94
e 66 98
e 66 109
e 66 113
e 66 116
e 66 120
e 66 125
e 66 127
e 66 128
e 66 129
e 66 130
e 66 135
e 66 149
e 67 75
e 67 77
e 67 83
e 67 94
e 67 106
e 67 118
e 67 121
e 67 133
e 67 137
e 67 142
e 67 149
e 68 86
e 68 87
e 68 91
e 68 97
e 68 98
e 68 105
e 68 113
e 68 114
e 68 118
e 68 123
e 68 125
e 68 128
e 68 136
e 68 139
e 69 75
e 69 90
e 69 93
e 69 97
e 69 116
e 69 122
e 69 128
e 69 130
e 69 134
e 69 138
e 69 143
e 69 147
e 69 149
e 70 75
e 70 83
e 70 84
e 70 92
e 70 103
e 70 105
e 70 107
e 70 108
e 70 109
e 70 111
e 70 117
e 70 118
e 70 119
e 70 121
e 70 130
e 70 138
e 70 139
e 70 143
e 70 144
e 70 147
e 70 148
e 71 74
e 71 75
e 71 80
e 71 81
e 71 97
e 71 104
e 71 114
e 71 119
e 71 124
e 71 125
e 71 130
e 71 134
e 71 138
e 71 142
e 71 144
e 71 149
e 71 150
e 72 85
e 72 92
e 72 100
e 72 101
e 72 104
e 72 108
e 72 110
e 72 111
e 72 120
e 72 125
e 72 127
e 72 128
e 72 130
e 72 150
e 73 80
e 73 82
e 73 86
e 73 87
e 73 95
e 73 96
e 73 100
e 73 101
e 73 103
e 73 108
e 73 110
e 73 112
e 73 115
e 73 119
e 73 125
e 73 129
e 73 130
e 73 134
e 73 144
e 74 75
e 74 78
e 74 82
e 74 88
e 74 95
e 74 96
e 74 106
e 74 110
e 74 114
e 74 121
e 74 135
e 74 137
e 74 140
e 74 141
e 74 143
e 74 146
e 74 148
e 75 85
e 75 88
e 75 89
e 75 94
e 75 96
e 75 99
e 75 101
e 75 105
e 75 117
e 75 120
e 75 123
e 75 134
e 75 140
e 75 143
e 75 146
e 75 147
e 76 80
e 76 90
e 76 93
e 76 97
e 76 107
e 76 117
e 76 120
e 76 123
e 76 124
e 76 132
e 76 134
e 76 135
e 76 141
e 77 78
e 77 82
e 77 83
e 77 87
e 77 88
e 77 96
e 77 97
e 77 98
e 77 99
e 77 100
e 77 101
e 77 105
e 77 118
e 77 124
e 77 125
e 77 132
e 77 133
e 77 138
e 77 139
e 78 82
e 78 94
e 78 105
e 78 106
e 78 108
e 78 113
e 78 114
e 78 128
e 78 129
e 78 131
e 78 144
e 78 149
e 79 91
e 79 96
e 79 101
e 79 102
e 79 104
e 79 108
e 79 111
e 79 113
e 79 114
e 79 118
e 79 122
e 79 135
e 79 147
e 80 82
e 80 83
e 80 88
e 80 93
e 80 94
e 80 98
e 80 99
e 80 101
e 80 107
e 80 109
e 80 110
e 80 111
e 80 119
e 80 127
e 80 132
e 80 147
e 80 150
e 81 89
e 81 96
e 81 103
e 81 107
e 81 109
e 81 110
e 81 117
e 81 122
e 81 127
e 81 133
e 81 135
e 81 136
e 81 138
e 81 139
e 81 145
e 82 85
e 82 91
e 82 96
e 82 102
e 82 103
e 82 107
e 82 110
e 82 117
e 82 125
e 82 131
e 82 133
e 82 148
e 83 95
e 83 102
e 83 112
e 83 113
e 83 116
e 83 117
e 83 118
e 83 120
e 83 138
e 83 140
e 83 144
e 83 148
e 83 149
e 83 150
e 84 89
e 84 98
e 84 100
e 84 103
e 84 104
e 84 109
e 84 111
e 84 129
e 84 136
e 84 137
e 84 140
e 84 142
e 84 143
e 85 100
e 85 101
e 85 105
e 85 113
e 85 126
e 85 136
e 85 144
e 85 145
e 85 146
e 86 89
e 86 92
e 86 98
e 86 114
e 86 120
e 86 121
e 86 126
e 86 140
e 86 141
e 86 144
e 86 149
e 87 88
e 87 91
e 87 102
e 87 108
e 87 113
e 87 116
e 87 136
e 87 138
e 87 139
e 87 148
e 88 90
e 88 91
e 88 106
e 88 114
e 88 116
e 88 125
e 88 128
e 88 131
e 88 139
e 88 149
e 89 93
e 89 99
e 89 101
e 89 103
e 89 105
e 89 107
e 89 108
e 89 111
e 89 112
e 89 124
e 89 126
e 89 130
e 89 144
e 89 149
e 90 96
e 90 97
e 90 98
e 90 99
e 90 108
e 90 130
e 90 131
e 90 133
e 90 134
e 90 137
e 90 141
e 90 145
e 90 148
e 91 101
e 91 105
e 91 110
e 91 125
e 91 128
e 91 129
e 91 130
e 91 132
e 91 139
e 91 147
e 92 93
e 92 97
e 92 102
e 92 106
e 92 119
e 92 121
e 92 124
e 92 129
e 92 130
e 92 131
e 92 144
e 93 102
e 93 103
e 93 109
e 93 110
e 93 113
e 93 115
e 93 119
e 93 120
e 93 130
e 93 132
e 93 134
e 93 140
e 93 141
e 93 146
e 94 110
e 94 113
e 94 118
e 94 120
e 94 128
e 94 130
e 94 133
e 94 134
e 94 137
e 94 140
e 94 141
e 94 147
e 95 105
e 95 108
e 95 110
e 95 116
e 95 119
e 95 124
e 95 129
e 95 138
e 95 143
e 95 144
e 96 99
e 96 109
e 96 116
e 96 131
e 96 134
e 96 135
e 96 145
e 96 148
e 96 149
e 97 98
e 97 99
e 97 106
e 97 110
e 97 111
e 97 118
e 97 121
e 97 124
e 97 127
e 97 128
e 97 129
e 98 102
e 98 103
e 98 108
e 98 125
e 98 128
e 98 133
e 98 136
e 98 142
e 98 148
e 99 111
e 99 116
e 99 120
e 99 124
e 99 125
e 99 139
e 99 143
e 99 144
e 99 145
e 100 107
e 100 108
e 100 110
e 100 111
e 100 119
e 100 131
e 100 132
e 100 138
e 101 104
e 101 106
e 101 114
e 101 115
e 101 118
e 101 121
e 101 126
e 101 127
e 101 132
e 101 142
e 101 146
e 101 150
e 102 108
e 102 109
e 102 113
e 102 124
e 102 125
e 102 129
e 102 134
e 102 138
e 102 146
e 102 147
e 103 110
e 103 117
e 103 121
e 103 126
e 103 138
e 103 140
e 103 148
e 104 107
e 104 128
e 104 140
e 104 141
e 104 142
e 104 144
e 105 119
e 105 130
e 105 132
e 105 135
e 105 140
e 105 146
e 105 150
e 106 113
e 106 114
e 106 118
e 106 120
e 106 124
e 106 129
e 106 132
e 106 133
e 106 139
e 106 141
e 106 150
e 107 109
e 107 111
e 107 115
e 107 118
e 107 120
e 107 122
e 107 139
e 107 140
e 107 146
e 108 109
e 108 114
e 108 115
e 108 118
e 108 123
e 108 129
e 108 139
e 108 140
e 108 144
e 108 145
e 109 116
e 109 123
e 109 127
e 109 128
e 109 130
e 109 133
e 109 140
e 110 115
e 110 130
e 110 134
e 110 135
e 110 136
e 110 146
e 111 116
e 111 124
e 111 125
e 111 126
e 111 129
e 111 132
e 111 136
e 111 138
e 111 145
e 111 148
e 111 150
e 112 113
e 112 115
e 112 119
e 112 129
e 112 131
e 112 139
e 112 140
e 113 119
e 113 120
e 113 139
e 113 140
e 113 142
e 113 147
e 113 149
e 114 117
e 114 127
e 114 132
e 114 142
e 114 144
e 114 148
e 115 117
e 115 132
e 115 133
e 115 139
e 115 140
e 115 141
e 115 149
e 116 121
e 116 123
e 116 127
e 116 128
e 116 130
e 116 137
e 116 144
e 116 145
e 117 122
e 117 126
e 117 136
e 117 139
e 117 143
e 117 144
e 117 146
e 117 148
e 117 150
e 118 125
e 118 126
e 118 128
e 118 129
e 118 130
e 118 150
e 119 133
e 119 137
e 119 138
e 119 140
e 119 146
e 119 149
e 120 125
e 120 127
e 120 132
e 120 134
e 120 143
e 120 148
e 121 125
e 121 126
e 121 131
e 121 132
e 121 133
e 121 139
e 121 146
e 121 148
e 122 133
e 122 137
e 122 139
e 122 143
e 122 144
e 122 148
e 123 127
e 123 130
e 123 135
e 123 141
e 123 146
e 123 149
e 124 129
e 124 132
e 124 134
e 124 137
e 124 142
e 125 129
e 125 133
e 125 140
e 125 141
e 125 147
e 126 132
e 126 135
e 126 139
e 126 141
e 127 137
e 127 138
e 127 141
e 127 143
e 128 129
e 128 147
e 128 150
e 129 139
e 129 146
e 129 147
e 129 148
e 129 149
e 130 131
e 130 140
e 130 146
e 131 141
e 131 145
e 131 146
e 132 136
e 132 144
e 132 149
e 133 138
e 134 135
e 134 137
e 134 139
e 134 147
e 135 136
e 135 137
e 135 139
e 135 142
e 135 147
e 136 137
e 136 140
e 136 145
e 136 147
e 137 138
e 137 147
e 137 148
e 138 147
e 138 148
e 139 141
e 139 144
e 139 150
e 140 145
e 140 149
e 141 146
e 141 147
e 141 150
e 142 143
e 142 146
e 142 148
e 143 144
e 143 147
e 143 148
e 144 149
